results_rootrelaxation/bin012_090_047.srr.sol
solution status: optimal solution found
objective value:                                   32
_var142_                            0.011994949494948 	(obj:5)
_var200_                           0.0359848484848493 	(obj:5)
_var424_                          0.000631313131314759 	(obj:6)
_var450_                           0.0587121212121202 	(obj:2)
_var523_                            0.104166666666665 	(obj:5)
_var695_                            0.171085858585859 	(obj:5)
_var727_                            0.233585858585858 	(obj:3)
_var729_                             0.11868686868687 	(obj:4)
_var730_                                       0.3125 	(obj:3)
_var732_                            0.133207070707072 	(obj:3)
_var743_                           0.0669191919191937 	(obj:5)
_var756_                            0.530303030303028 	(obj:3)
_var765_                           0.0505050505050518 	(obj:4)
_var769_                            0.541666666666668 	(obj:1)
_var770_                            0.134469696969698 	(obj:3)
_var777_                            0.678030303030302 	(obj:1)
_var778_                            0.153409090909092 	(obj:3)
_var780_                            0.123106060606061 	(obj:3)
_var783_                            0.129419191919193 	(obj:4)
_var785_                            0.207070707070708 	(obj:3)
_var786_                           0.0940656565656549 	(obj:3)
_var789_                            0.181818181818182 	(obj:2)
_var792_                            0.445707070707075 	(obj:2)
_var794_                              0.4760101010101 	(obj:4)
_var802_                            0.145833333333335 	(obj:2)
_var804_                            0.133207070707072 	(obj:4)
_var806_                            0.315656565656566 	(obj:4)
_var809_                           0.0441919191919199 	(obj:5)
_var810_                            0.321969696969698 	(obj:2)
_var811_                           0.0416666666666667 	(obj:3)
_var817_                            0.506944444444444 	(obj:4)
_var825_                           0.0782828282828266 	(obj:3)
_var826_                            0.161616161616162 	(obj:3)
_var830_                            0.113005050505052 	(obj:3)
_var834_                            0.776515151515152 	(obj:2)
_var835_                            0.130681818181818 	(obj:1)
_var839_                           0.0587121212121216 	(obj:4)
_var840_                            0.145833333333332 	(obj:3)
_var842_                            0.164141414141413 	(obj:5)
_var848_                            0.471590909090908 	(obj:3)
_var852_                            0.305555555555557 	(obj:4)
_var856_                           0.0359848484848498 	(obj:2)
_var863_                            0.268939393939393 	(obj:2)
_var864_                            0.285984848484848 	(obj:4)
_var869_                            0.341540404040401 	(obj:3)
_var871_                            0.187499999999999 	(obj:4)
_var873_                             0.33459595959596 	(obj:3)
_var878_                            0.187499999999999 	(obj:2)
_var884_                            0.218434343434343 	(obj:4)
_var885_                            0.138257575757574 	(obj:4)
_var886_                           0.0928030303030313 	(obj:3)
